NAME          ClpDefau
ROWS
 N  OBJROW
 L  R_212_0
 L  R_212_1
 L  R_212_2
 L  R_212_3
 L  R_212_4
 L  R_212_5
 L  R_212_6
 L  R_212_7
 L  R_212_8
 L  R_212_9
 L  R_212_10
 L  R_212_11
 L  R_212_12
 L  R_212_13
 L  R_212_14
 L  R_212_15
COLUMNS
    x_0       OBJROW     -8.           R_212_2   23.         
    x_0       R_212_4   42.            R_212_5   66.         
    x_0       R_212_9   58.         
    x_1       OBJROW     -12.          R_212_2   97.         
    x_2       OBJROW     -11.       
    x_3       OBJROW     -47.          R_212_8   25.         
    x_3       R_212_10  74.            R_212_15  67.         
    x_4       OBJROW     -22.          R_212_0   35.         
    x_4       R_212_6   47.            R_212_9   15.         
    x_4       R_212_11  94.            R_212_14  21.         
    x_5       OBJROW     -95.          R_212_1   76.         
    x_5       R_212_2   32.            R_212_3   5.          
    x_5       R_212_4   79.            R_212_12  34.         
    x_6       OBJROW     -86.          R_212_4   58.         
    x_7       OBJROW     -40.          R_212_4   22.         
    x_7       R_212_5   82.            R_212_9   32.         
    x_8       OBJROW     -33.          R_212_4   5.          
    x_8       R_212_6   66.            R_212_9   24.         
    x_8       R_212_11  4.          
    x_9       OBJROW     -78.          R_212_7   54.         
    x_9       R_212_13  16.         
    x_10      OBJROW     -28.          R_212_2   88.         
    x_10      R_212_4   26.            R_212_7   58.         
    x_10      R_212_8   82.            R_212_12  37.         
    x_10      R_212_13  40.            R_212_15  97.         
    x_11      OBJROW     -78.          R_212_1   48.         
    x_11      R_212_6   16.            R_212_7   79.         
    x_11      R_212_12  85.            R_212_14  91.         
    x_12      OBJROW     -5.        
    x_13      OBJROW     -75.          R_212_3   46.         
    x_13      R_212_4   70.            R_212_5   54.         
    x_13      R_212_11  38.         
    x_14      OBJROW     -88.          R_212_0   37.         
    x_14      R_212_1   70.            R_212_8   21.         
    x_14      R_212_15  57.         
    x_15      OBJROW     -21.          R_212_5   36.         
    x_16      OBJROW     -56.          R_212_7   60.         
    x_16      R_212_11  13.            R_212_12  28.         
    x_17      OBJROW     -82.          R_212_1   72.         
    x_17      R_212_3   96.            R_212_8   87.         
    x_17      R_212_15  1.          
    x_18      OBJROW     -51.          R_212_3   76.         
    x_18      R_212_9   11.         
    x_19      OBJROW     -93.          R_212_3   64.         
    x_19      R_212_7   72.            R_212_9   5.          
    x_20      OBJROW     -66.          R_212_3   41.         
    x_20      R_212_10  82.            R_212_14  65.         
    x_21      OBJROW     -48.          R_212_6   49.         
    x_21      R_212_15  92.         
    x_22      OBJROW     -70.          R_212_4   31.         
    x_22      R_212_8   18.         
    x_23      OBJROW     -57.       
    x_24      OBJROW     -65.          R_212_0   46.         
    x_24      R_212_2   24.            R_212_6   22.         
    x_25      OBJROW     -35.          R_212_2   41.         
    x_25      R_212_8   47.         
    x_26      OBJROW     -5.           R_212_1   19.         
    x_26      R_212_2   9.             R_212_5   67.         
    x_26      R_212_7   83.         
    x_27      OBJROW     -4.           R_212_10  14.         
    x_27      R_212_13  88.            R_212_15  51.         
    x_28      OBJROW     -47.          R_212_2   14.         
    x_28      R_212_5   55.            R_212_7   84.         
    x_28      R_212_11  18.            R_212_13  65.         
    x_28      R_212_15  70.         
    x_29      OBJROW     -60.          R_212_5   63.         
    x_29      R_212_6   70.            R_212_7   14.         
    x_30      OBJROW     -41.          R_212_5   27.         
    x_30      R_212_6   26.         
    x_31      OBJROW     -49.          R_212_6   71.         
    x_31      R_212_10  18.            R_212_15  99.         
RHS
    RHS       R_212_0   425.           R_212_1   348.        
    RHS       R_212_2   426.           R_212_3   338.        
    RHS       R_212_4   396.           R_212_5   360.        
    RHS       R_212_6   324.           R_212_7   408.        
    RHS       R_212_8   345.           R_212_9   333.        
    RHS       R_212_10  337.           R_212_11  401.        
    RHS       R_212_12  408.           R_212_13  389.        
    RHS       R_212_14  343.           R_212_15  417.        
BOUNDS
 UI BOUND     x_0       100.        
 UI BOUND     x_1       100.        
 UI BOUND     x_2       100.        
 UI BOUND     x_3       100.        
 UI BOUND     x_4       100.        
 UI BOUND     x_5       100.        
 UI BOUND     x_6       100.        
 UI BOUND     x_7       100.        
 UI BOUND     x_8       100.        
 UI BOUND     x_9       100.        
 UI BOUND     x_10      100.        
 UI BOUND     x_11      100.        
 UI BOUND     x_12      100.        
 UI BOUND     x_13      100.        
 UI BOUND     x_14      100.        
 UI BOUND     x_15      100.        
 UI BOUND     x_16      100.        
 UI BOUND     x_17      100.        
 UI BOUND     x_18      100.        
 UI BOUND     x_19      100.        
 UI BOUND     x_20      100.        
 UI BOUND     x_21      100.        
 UI BOUND     x_22      100.        
 UI BOUND     x_23      100.        
 UI BOUND     x_24      100.        
 UI BOUND     x_25      100.        
 UI BOUND     x_26      100.        
 UI BOUND     x_27      100.        
 UI BOUND     x_28      100.        
 UI BOUND     x_29      100.        
 UI BOUND     x_30      100.        
 UI BOUND     x_31      100.        
ENDATA
